70	100	100	100
2	8	8
2	4	1
8	4	6
1	3	5
5	4	5
7	3	9
3	1	7
7	1	5
9	1	2
5	9	2
2	8	6
1	2	6
1	4	2
2	5	2
7	7	1
3	6	2
8	1	9
8	3	6
8	2	7
9	5	4
4	8	4
7	8	4
6	8	3
9	2	5
6	4	2
5	1	4
4	2	6
2	5	6
2	1	3
3	2	2
4	1	5
8	8	1
8	3	7
9	9	9
2	2	6
1	9	2
2	2	7
1	4	8
2	8	6
4	6	5
8	5	3
4	5	3
6	3	3
6	6	4
6	2	3
7	5	7
6	1	5
2	4	7
1	4	6
6	2	3
5	9	9
1	5	8
5	1	5
8	3	9
5	3	2
2	8	3
2	3	5
6	9	9
2	7	1
7	2	8
1	9	1
9	4	9
3	7	1
4	7	7
8	7	4
1	8	3
9	7	6
8	3	1
7	2	4
3	5	6
